projected/problems_b25_r0_d7_m100_s666/_DIMACS/b25_d7_r0_s666_007.cnf
p cnf 217 317 25
c p show 1 2 3 4 5 6 7 8 9 10 11 12 13 14 15 16 17 18 19 20 21 22 23 24 25
-35 -20 23 0
-36 -7 0
-36 3 0
-37 36 0
-37 35 0
-38 18 17 0
-39 -23 0
-39 -25 0
-40 25 0
-40 23 0
-41 40 39 0
-42 41 0
-42 38 0
-43 42 37 0
-44 -18 0
-44 -17 0
-45 23 25 0
-46 -25 -23 0
-47 46 0
-47 45 0
-48 47 44 0
-49 20 0
-49 -23 0
-50 7 -3 0
-51 50 49 0
-52 51 48 0
-53 52 0
-53 43 0
-54 -21 0
-54 -16 0
-55 -11 8 0
-56 55 54 0
-57 -1 -20 0
-58 20 1 0
-59 58 0
-59 57 0
-60 -1 0
-60 -14 0
-61 60 59 0
-62 61 56 0
-63 62 0
-63 53 0
-64 8 0
-64 18 0
-65 -6 18 0
-66 65 64 0
-67 6 0
-67 -18 0
-68 -8 -18 0
-69 68 67 0
-70 69 0
-70 66 0
-71 6 19 0
-72 -16 0
-72 23 0
-73 72 71 0
-74 16 -23 0
-75 -6 0
-75 -19 0
-76 75 74 0
-78 76 0
-78 73 0
-79 78 0
-79 70 0
-80 17 -6 0
-81 -23 10 0
-82 81 0
-82 80 0
-84 -11 0
-84 11 0
-85 11 -20 0
-86 85 0
-86 84 0
-87 86 0
-87 82 0
-88 87 79 0
-90 88 0
-90 63 0
-91 -20 0
-91 -1 0
-92 -16 0
-92 -4 0
-93 92 0
-93 91 0
-94 -12 21 0
-96 -21 12 0
-97 96 0
-97 94 0
-98 -3 0
-98 25 0
-99 98 97 0
-100 99 93 0
-102 19 23 0
-103 10 3 0
-104 103 0
-104 102 0
-105 -10 0
-105 -3 0
-106 -19 0
-106 -23 0
-108 106 0
-108 105 0
-109 108 104 0
-110 9 12 0
-111 24 22 0
-112 111 110 0
-114 112 0
-114 109 0
-115 114 100 0
-116 -10 5 0
-117 7 0
-117 21 0
-118 -21 0
-118 -7 0
-120 118 117 0
-121 120 116 0
-122 -7 -21 0
-123 21 7 0
-124 123 0
-124 122 0
-125 10 0
-125 -5 0
-126 125 124 0
-127 126 0
-127 121 0
-128 1 -1 0
-129 -3 -20 0
-130 20 3 0
-131 130 0
-131 129 0
-132 131 128 0
-133 132 127 0
-134 12 0
-135 2 -15 0
-136 135 0
-136 134 0
-137 25 0
-137 -21 0
-138 25 0
-138 -14 0
-139 138 137 0
-140 139 0
-140 136 0
-141 140 0
-141 133 0
-142 141 0
-142 115 0
-143 142 0
-143 90 0
-144 11 -16 0
-145 -13 0
-145 -19 0
-146 145 0
-146 144 0
-147 13 19 0
-148 -11 0
-148 16 0
-149 148 0
-149 147 0
-150 149 146 0
-151 -24 0
-151 -21 0
-152 21 0
-152 24 0
-153 152 151 0
-154 9 0
-154 19 0
-155 154 0
-155 153 0
-156 155 0
-156 150 0
-157 13 -2 0
-158 -6 0
-158 -5 0
-159 158 157 0
-160 -14 0
-160 6 0
-161 5 14 0
-162 161 160 0
-163 162 159 0
-164 163 156 0
-165 17 0
-165 -4 0
-166 -10 0
-166 8 0
-167 166 0
-167 165 0
-168 10 -8 0
-169 -17 4 0
-170 169 0
-170 168 0
-171 170 167 0
-172 22 12 0
-173 6 0
-173 -17 0
-174 17 0
-174 -6 0
-175 174 173 0
-176 175 172 0
-177 176 171 0
-178 -5 4 0
-179 4 -22 0
-180 179 178 0
-181 -15 0
-181 -19 0
-182 -20 0
-182 10 0
-183 182 181 0
-184 183 180 0
-185 184 0
-185 177 0
-186 185 164 0
-187 -21 0
-187 4 0
-188 -4 0
-188 21 0
-189 188 187 0
-190 -25 -24 0
-191 190 0
-191 189 0
-192 21 23 0
-193 -23 -21 0
-194 193 0
-194 192 0
-195 -22 0
-195 -19 0
-196 195 0
-196 194 0
-197 22 19 0
-198 -21 0
-198 -23 0
-199 23 0
-199 21 0
-200 199 198 0
-201 200 0
-201 197 0
-202 201 196 0
-203 202 0
-203 191 0
-204 -19 0
-205 -17 0
-205 -24 0
-206 205 0
-206 204 0
-207 7 0
-207 -16 0
-208 -23 15 0
-209 -15 23 0
-210 209 0
-210 208 0
-211 210 0
-211 207 0
-212 211 0
-212 206 0
-213 212 0
-213 203 0
-214 -23 0
-214 -1 0
-215 3 -17 0
-216 215 214 0
-217 -3 0
-217 17 0
-26 23 1 0
-27 26 217 0
-77 27 0
-77 216 0
-83 -25 15 0
-89 6 0
-89 3 0
-95 89 83 0
-101 95 77 0
-107 13 -13 0
-113 24 0
-113 -10 0
-119 113 107 0
-28 13 0
-29 -25 0
-29 -24 0
-30 29 0
-30 28 0
-31 30 119 0
-32 31 101 0
-33 32 213 0
-34 33 186 0
34 143 0
-38 -44 0
-47 -41 0
-41 -47 0
-42 -48 0
-48 -42 0
-35 -49 0
-36 -50 0
-37 -51 0
-67 -65 0
-68 -64 0
-64 -68 0
-74 -72 0
-71 -75 0
-105 -103 0
-103 -105 0
-102 -106 0
-106 -102 0
-124 -120 0
-125 -116 0
-116 -125 0
-145 -147 0
-148 -144 0
-166 -168 0
-165 -169 0
-169 -165 0
-197 -195 0
-195 -197 0
-194 -200 0
-200 -194 0
-217 -215 0
-26 -214 0
-214 -26 0
