projected/problems_b25_r0_d7_m100_s666/b25_d7_r0_s666_007.smt2
(set-logic QF_UF)
(declare-fun A0 () Bool)
(declare-fun A1 () Bool)
(declare-fun A2 () Bool)
(declare-fun A3 () Bool)
(declare-fun A4 () Bool)
(declare-fun A5 () Bool)
(declare-fun A6 () Bool)
(declare-fun A7 () Bool)
(declare-fun A8 () Bool)
(declare-fun A9 () Bool)
(declare-fun A10 () Bool)
(declare-fun A11 () Bool)
(declare-fun A12 () Bool)
(declare-fun A13 () Bool)
(declare-fun A14 () Bool)
(declare-fun A15 () Bool)
(declare-fun A16 () Bool)
(declare-fun A17 () Bool)
(declare-fun A18 () Bool)
(declare-fun A19 () Bool)
(declare-fun A20 () Bool)
(declare-fun A21 () Bool)
(declare-fun A22 () Bool)
(declare-fun A23 () Bool)
(declare-fun A24 () Bool)
(assert (let ((.def_0 (or A17 A16))) (let ((.def_1 (not A22))) (let ((.def_2 (= A24 .def_1))) (let ((.def_3 (not .def_2))) (let ((.def_4 (and .def_3 .def_0))) (let ((.def_5 (not .def_4))) (let ((.def_6 (not A19))) (let ((.def_7 (or .def_6 A22))) (let ((.def_8 (not A6))) (let ((.def_9 (and .def_8 A2))) (let ((.def_10 (and .def_9 .def_7))) (let ((.def_11 (= .def_10 .def_5))) (let ((.def_12 (not A15))) (let ((.def_13 (not A20))) (let ((.def_14 (and .def_13 .def_12))) (let ((.def_15 (not A10))) (let ((.def_16 (or .def_15 A7))) (let ((.def_17 (or .def_16 .def_14))) (let ((.def_18 (= .def_6 A0))) (let ((.def_19 (not .def_18))) (let ((.def_20 (not A13))) (let ((.def_21 (not A0))) (let ((.def_22 (and .def_21 .def_20))) (let ((.def_23 (not .def_22))) (let ((.def_24 (and .def_23 .def_19))) (let ((.def_25 (not .def_24))) (let ((.def_26 (or .def_25 .def_17))) (let ((.def_27 (and .def_26 .def_11))) (let ((.def_28 (not A17))) (let ((.def_29 (and A5 .def_28))) (let ((.def_30 (not A7))) (let ((.def_31 (or .def_30 .def_28))) (let ((.def_32 (not .def_31))) (let ((.def_33 (= .def_32 .def_29))) (let ((.def_34 (or A15 .def_1))) (let ((.def_35 (or A5 A18))) (let ((.def_36 (= .def_35 .def_34))) (let ((.def_37 (and .def_36 .def_33))) (let ((.def_38 (not .def_37))) (let ((.def_39 (not A5))) (let ((.def_40 (or A16 .def_39))) (let ((.def_41 (not A9))) (let ((.def_42 (and A22 .def_41))) (let ((.def_43 (not .def_42))) (let ((.def_44 (and .def_43 .def_40))) (let ((.def_45 (not .def_44))) (let ((.def_46 (and .def_15 A10))) (let ((.def_47 (and .def_15 A19))) (let ((.def_48 (not .def_47))) (let ((.def_49 (and .def_48 .def_46))) (let ((.def_50 (not .def_49))) (let ((.def_51 (or .def_50 .def_45))) (let ((.def_52 (and .def_51 .def_38))) (let ((.def_53 (not .def_52))) (let ((.def_54 (and .def_53 .def_27))) (let ((.def_55 (not .def_54))) (let ((.def_56 (or A19 A0))) (let ((.def_57 (not A3))) (let ((.def_58 (and .def_12 .def_57))) (let ((.def_59 (not .def_58))) (let ((.def_60 (or .def_59 .def_56))) (let ((.def_61 (not .def_60))) (let ((.def_62 (= A20 A11))) (let ((.def_63 (not .def_62))) (let ((.def_64 (not A2))) (let ((.def_65 (and .def_64 A24))) (let ((.def_66 (not .def_65))) (let ((.def_67 (and .def_66 .def_63))) (let ((.def_68 (not .def_67))) (let ((.def_69 (or .def_68 .def_61))) (let ((.def_70 (not .def_69))) (let ((.def_71 (and .def_41 .def_64))) (let ((.def_72 (not .def_71))) (let ((.def_73 (or A18 A22))) (let ((.def_74 (not .def_73))) (let ((.def_75 (= .def_74 .def_72))) (let ((.def_76 (or A8 A11))) (let ((.def_77 (not .def_76))) (let ((.def_78 (not A21))) (let ((.def_79 (not A23))) (let ((.def_80 (and .def_79 .def_78))) (let ((.def_81 (and .def_80 .def_77))) (let ((.def_82 (or .def_81 .def_75))) (let ((.def_83 (and .def_82 .def_70))) (let ((.def_84 (= .def_13 A6))) (let ((.def_85 (not A4))) (let ((.def_86 (and A9 .def_85))) (let ((.def_87 (not .def_86))) (let ((.def_88 (= .def_87 .def_84))) (let ((.def_89 (and .def_21 A0))) (let ((.def_90 (= .def_6 A2))) (let ((.def_91 (not .def_90))) (let ((.def_92 (and .def_91 .def_89))) (let ((.def_93 (not .def_92))) (let ((.def_94 (or .def_93 .def_88))) (let ((.def_95 (not .def_94))) (let ((.def_96 (or A11 A11))) (let ((.def_97 (not .def_96))) (let ((.def_98 (not A14))) (let ((.def_99 (or A1 .def_98))) (let ((.def_100 (not .def_99))) (let ((.def_101 (or .def_100 .def_97))) (let ((.def_102 (and A24 .def_13))) (let ((.def_103 (not A24))) (let ((.def_104 (or .def_103 A13))) (let ((.def_105 (not .def_104))) (let ((.def_106 (or .def_105 .def_102))) (let ((.def_107 (not .def_106))) (let ((.def_108 (or .def_107 .def_101))) (let ((.def_109 (or .def_108 .def_95))) (let ((.def_110 (or .def_109 .def_83))) (let ((.def_111 (or .def_110 .def_55))) (let ((.def_112 (not .def_111))) (let ((.def_113 (not A18))) (let ((.def_114 (not A12))) (let ((.def_115 (and .def_114 .def_113))) (let ((.def_116 (and .def_15 A15))) (let ((.def_117 (= .def_116 .def_115))) (let ((.def_118 (= A20 .def_79))) (let ((.def_119 (not .def_118))) (let ((.def_120 (and A8 A18))) (let ((.def_121 (and .def_120 .def_119))) (let ((.def_122 (not .def_121))) (let ((.def_123 (or .def_122 .def_117))) (let ((.def_124 (not .def_123))) (let ((.def_125 (not A1))) (let ((.def_126 (or A12 .def_125))) (let ((.def_127 (or A5 A4))) (let ((.def_128 (not .def_127))) (let ((.def_129 (or .def_128 .def_126))) (let ((.def_130 (not .def_129))) (let ((.def_131 (and .def_20 A5))) (let ((.def_132 (or A4 A13))) (let ((.def_133 (or .def_132 .def_131))) (let ((.def_134 (not .def_133))) (let ((.def_135 (and .def_134 .def_130))) (let ((.def_136 (not .def_135))) (let ((.def_137 (or .def_136 .def_124))) (let ((.def_138 (not .def_137))) (let ((.def_139 (and .def_41 A7))) (let ((.def_140 (and A16 .def_57))) (let ((.def_141 (not .def_140))) (let ((.def_142 (= .def_141 .def_139))) (let ((.def_143 (not .def_142))) (let ((.def_144 (or A21 A11))) (let ((.def_145 (= A16 A5))) (let ((.def_146 (not .def_145))) (let ((.def_147 (or .def_146 .def_144))) (let ((.def_148 (or .def_147 .def_143))) (let ((.def_149 (not .def_148))) (let ((.def_150 (or .def_85 A3))) (let ((.def_151 (or A3 .def_78))) (let ((.def_152 (or .def_151 .def_150))) (let ((.def_153 (not .def_152))) (let ((.def_154 (and .def_98 .def_113))) (let ((.def_155 (not .def_154))) (let ((.def_156 (or A19 .def_41))) (let ((.def_157 (and .def_156 .def_155))) (let ((.def_158 (and .def_157 .def_153))) (let ((.def_159 (or .def_158 .def_149))) (let ((.def_160 (and .def_159 .def_138))) (let ((.def_161 (not .def_160))) (let ((.def_162 (= .def_57 .def_13))) (let ((.def_163 (or .def_103 .def_79))) (let ((.def_164 (not .def_163))) (let ((.def_165 (or .def_164 .def_162))) (let ((.def_166 (not .def_165))) (let ((.def_167 (or A21 A18))) (let ((.def_168 (not .def_167))) (let ((.def_169 (= A22 .def_13))) (let ((.def_170 (not .def_169))) (let ((.def_171 (= .def_170 .def_168))) (let ((.def_172 (not .def_171))) (let ((.def_173 (and .def_172 .def_166))) (let ((.def_174 (not .def_173))) (let ((.def_175 (or A18 A18))) (let ((.def_176 (or A16 A23))) (let ((.def_177 (or .def_176 .def_175))) (let ((.def_178 (not .def_177))) (let ((.def_179 (and A6 .def_12))) (let ((.def_180 (not .def_179))) (let ((.def_181 (= A14 A22))) (let ((.def_182 (not .def_181))) (let ((.def_183 (or .def_182 .def_180))) (let ((.def_184 (not .def_183))) (let ((.def_185 (and .def_184 .def_178))) (let ((.def_186 (not .def_185))) (let ((.def_187 (or .def_186 .def_174))) (let ((.def_188 (and .def_64 A16))) (let ((.def_189 (or A22 A0))) (let ((.def_190 (not .def_189))) (let ((.def_191 (= .def_190 .def_188))) (let ((.def_192 (and A24 .def_98))) (let ((.def_193 (or .def_39 .def_64))) (let ((.def_194 (and .def_193 .def_192))) (let ((.def_195 (not .def_194))) (let ((.def_196 (or .def_195 .def_191))) (let ((.def_197 (not .def_196))) (let ((.def_198 (and .def_114 A12))) (let ((.def_199 (not .def_198))) (let ((.def_200 (and A23 .def_41))) (let ((.def_201 (or .def_200 .def_199))) (let ((.def_202 (not .def_201))) (let ((.def_203 (and .def_114 .def_114))) (let ((.def_204 (not .def_203))) (let ((.def_205 (or A24 A23))) (let ((.def_206 (not .def_205))) (let ((.def_207 (and .def_206 .def_204))) (let ((.def_208 (not .def_207))) (let ((.def_209 (and .def_208 .def_202))) (let ((.def_210 (and .def_209 .def_197))) (let ((.def_211 (and .def_210 .def_187))) (let ((.def_212 (not .def_211))) (let ((.def_213 (or .def_212 .def_161))) (let ((.def_214 (or .def_213 .def_112))) .def_214))))))))))))))))))))))))))))))))))))))))))))))))))))))))))))))))))))))))))))))))))))))))))))))))))))))))))))))))))))))))))))))))))))))))))))))))))))))))))))))))))))))))))))))))))))))))))))))))))))))))))))))))))))))))
(check-sat)
